FILENAME:   /home/mcs001/s132664/testsets/IP/miplib2017/neos-3755335-nizao.mps.gz
SETTINGS:   settings_final_nopeek_norelabel_extend_norestarts
TIMELIMIT:  7200
OUTPUTNAME: final_miplib_symretope_if_extended_generating_set_cpx_v802__settings_final_nopeek_norelabel_extend_norestarts__0__
BINNAME:    bin/sbcs.linux.x86_64.gnu.opt.cpx
BASENAME:   neos-3755335-nizao.mps.gz
SEED:       0
@01 /home/mcs001/s132664/testsets/IP/miplib2017/neos-3755335-nizao.mps.gz ===========
@02 neos-3755335-nizao.mps.gz
@03 1686649309
SCIP version 8.0.2 [precision: 8 byte] [memory: block] [mode: optimized] [LP solver: CPLEX 20.1.0.0] [GitHash: 5f0473c]
Copyright (C) 2002-2022 Konrad-Zuse-Zentrum fuer Informationstechnik Berlin (ZIB)

Symretope propagation methods - (c) Jasper van Doornmalen, Christopher Hojny.
[GitHash: 2fd0484]

reading parameter file <../settings/settings_final_nopeek_norelabel_extend_norestarts.set> ...

Changed settings:
limits/time = 7200
limits/restarts = 0
misc/usesymmetry = 1
constraints/orbisack/sepafreq = -1
constraints/symresack/sepafreq = -1
propagating/symmetry/addsymresacks = TRUE
propagating/symmetry/detectsubgroups = FALSE
propagating/symmetry/relabelsymretopes = 0
propagating/symmetry/extendgenerators = TRUE
propagating/symmetry/ofsymcomptiming = 0
constraints/symretope/sepafreq = -1
constraints/symretope/peek = FALSE


solving problem ...

original problem has 40938 variables (5226 bin, 0 int, 0 impl, 35712 cont) and 111026 constraints
presolving:
(round 1, exhaustive) 0 del vars, 0 del conss, 0 add conss, 0 chg bounds, 18 chg sides, 252 chg coeffs, 72104 upgd conss, 0 impls, 428 clqs
   (14.4s) probing: 1000/5226 (19.1%) - 0 fixings, 0 aggregations, 843918 implications, 0 bound changes
   (14.4s) probing: 1001/5226 (19.2%) - 0 fixings, 0 aggregations, 846593 implications, 0 bound changes
   (14.4s) probing aborted: 1000/1000 successive useless probings
   (15.9s) symmetry computation started: requiring (bin +, int +, cont +), (fixed: bin -, int -, cont -)
   (17.3s) symmetry computation finished: 12 generators found (max: 1500, log10 of symmetry group size: 4.3)
(round 2, exhaustive) 0 del vars, 12 del conss, 97 add conss, 0 chg bounds, 18 chg sides, 258 chg coeffs, 72104 upgd conss, 894213 impls, 24232 clqs
presolving (3 rounds: 3 fast, 3 medium, 3 exhaustive):
 0 deleted vars, 12 deleted constraints, 97 added constraints, 0 tightened bounds, 0 added holes, 18 changed sides, 288 changed coefficients
 894213 implications, 24232 cliques
presolved problem has 40938 variables (5226 bin, 0 int, 0 impl, 35712 cont) and 111111 constraints
  71424 constraints of type <varbound>
     54 constraints of type <knapsack>
    428 constraints of type <setppc>
  38922 constraints of type <linear>
     44 constraints of type <orbisack>
      5 constraints of type <symretope>
    234 constraints of type <logicor>
Presolving Time: 17.21

 time | node  | left  |LP iter|LP it/n|mem/heur|mdpt |vars |cons |rows |cuts |sepa|confs|strbr|  dualbound   | primalbound  |  gap   | compl. 
 19.7s|     1 |     0 |   990 |     - |   839M |   0 |  40k| 111k| 111k|   0 |  0 |  25 |   0 | 5.003016e+01 |      --      |    Inf | unknown
 24.2s|     1 |     0 |  3953 |     - |   863M |   0 |  40k| 111k| 111k|  43 |  1 |  26 |   0 | 5.003016e+01 |      --      |    Inf | unknown
 24.9s|     1 |     0 |  4165 |     - |   875M |   0 |  40k| 111k| 111k|  77 |  2 |  29 |   0 | 5.003016e+01 |      --      |    Inf | unknown
 25.5s|     1 |     0 |  4295 |     - |   887M |   0 |  40k| 111k| 111k| 100 |  3 |  30 |   0 | 5.003016e+01 |      --      |    Inf | unknown
 26.1s|     1 |     0 |  4330 |     - |   899M |   0 |  40k| 111k| 111k| 112 |  4 |  32 |   0 | 5.003016e+01 |      --      |    Inf | unknown
 27.0s|     1 |     0 |  4425 |     - |   911M |   0 |  40k| 111k| 111k| 136 |  5 |  35 |   0 | 5.003016e+01 |      --      |    Inf | unknown
 27.8s|     1 |     0 |  4499 |     - |   923M |   0 |  40k| 111k| 111k| 153 |  6 |  37 |   0 | 5.003016e+01 |      --      |    Inf | unknown
 28.9s|     1 |     0 |  5057 |     - |   940M |   0 |  40k| 111k| 111k| 242 |  7 |  47 |   0 | 5.003016e+01 |      --      |    Inf | unknown
 29.8s|     1 |     0 |  5653 |     - |   955M |   0 |  40k| 111k| 111k| 318 |  8 |  48 |   0 | 5.003016e+01 |      --      |    Inf | unknown
 30.9s|     1 |     0 |  6464 |     - |   968M |   0 |  40k| 111k| 111k| 391 |  9 |  50 |   0 | 5.003016e+01 |      --      |    Inf | unknown
 32.0s|     1 |     0 |  7063 |     - |   981M |   0 |  40k| 111k| 111k| 443 | 10 |  53 |   0 | 5.003016e+01 |      --      |    Inf | unknown
 33.1s|     1 |     0 |  7443 |     - |   993M |   0 |  40k| 111k| 111k| 478 | 11 |  55 |   0 | 5.003016e+01 |      --      |    Inf | unknown
 63.9s|     1 |     2 | 15835 |     - |  1008M |   0 |  40k| 111k| 111k| 478 | 11 | 134 |  22 | 5.003016e+01 |      --      |    Inf | unknown
d82.6s|    37 |     0 | 21002 | 376.6 |veclendi|   9 |  40k| 111k| 111k|   0 |  1 | 180 |  22 | 5.003016e+01 | 5.003016e+01 |   0.00%| 100.00%

SCIP Status        : problem is solved [optimal solution found]
Solving Time (sec) : 82.70
Solving Nodes      : 37
Primal Bound       : +5.00301565326000e+01 (1 solutions)
Dual Bound         : +5.00301565326000e+01
Gap                : 0.00 %
SCIP Status        : problem is solved [optimal solution found]
Total Time         :      83.34
  solving          :      82.70
  presolving       :      17.21 (included in solving)
  reading          :       0.63
  copying          :       0.68 (2 #copies) (minimal 0.33, maximal 0.35, average 0.34)
Original Problem   :
  Problem name     : neos-3755335-nizao
  Variables        : 40938 (5226 binary, 0 integer, 0 implicit integer, 35712 continuous)
  Constraints      : 111026 initial, 111026 maximal
  Objective        : minimize, 1488 non-zeros (abs.min = 0.015122, abs.max = 5.95504)
Presolved Problem  :
  Problem name     : t_neos-3755335-nizao
  Variables        : 40938 (5226 binary, 0 integer, 0 implicit integer, 35712 continuous)
  Constraints      : 111111 initial, 111291 maximal
  Objective        : minimize, 1488 non-zeros (abs.min = 0.015122, abs.max = 5.95504)
  Nonzeros         : 570702 constraint, 51526 clique table
Presolvers         :   ExecTime  SetupTime  Calls  FixedVars   AggrVars   ChgTypes  ChgBounds   AddHoles    DelCons    AddCons   ChgSides   ChgCoefs
  boundshift       :       0.00       0.00      0          0          0          0          0          0          0          0          0          0
  convertinttobin  :       0.00       0.00      0          0          0          0          0          0          0          0          0          0
  domcol           :       0.13       0.00      2          0          0          0          0          0          0          0          0          0
  dualagg          :       0.00       0.00      0          0          0          0          0          0          0          0          0          0
  dualcomp         :       0.11       0.00      2          0          0          0          0          0          0          0          0          0
  dualinfer        :       0.00       0.00      0          0          0          0          0          0          0          0          0          0
  dualsparsify     :       1.46       0.00      1          0          0          0          0          0          0          0          0          0
  gateextraction   :       0.00       0.00      2          0          0          0          0          0          0          0          0          0
  implics          :       0.00       0.00      3          0          0          0          0          0          0          0          0          0
  inttobinary      :       0.00       0.00      0          0          0          0          0          0          0          0          0          0
  qpkktref         :       0.00       0.00      0          0          0          0          0          0          0          0          0          0
  redvub           :       0.00       0.00      0          0          0          0          0          0          0          0          0          0
  sparsify         :       0.32       0.00      1          0          0          0          0          0          0          0          0          0
  stuffing         :       0.00       0.00      0          0          0          0          0          0          0          0          0          0
  trivial          :       0.00       0.00      3          0          0          0          0          0          0          0          0          0
  tworowbnd        :       0.00       0.00      0          0          0          0          0          0          0          0          0          0
  dualfix          :       0.01       0.00      3          0          0          0          0          0          0          0          0          0
  genvbounds       :       0.00       0.00      0          0          0          0          0          0          0          0          0          0
  probing          :      12.60       0.00      1          0          0          0          0          0          0          0          0          0
  pseudoobj        :       0.00       0.00      0          0          0          0          0          0          0          0          0          0
  symmetry         :       1.42       0.00      1          0          0          0          0          0          0         49          0          0
  vbounds          :       0.01       0.00      2          0          0          0          0          0          0          0          0          0
  varbound         :       0.12       0.00      4          0          0          0          0          0          0          0          0          0
  knapsack         :       0.01       0.00      6          0          0          0          0          0         12         48          0         36
  setppc           :       0.00       0.00      6          0          0          0          0          0          0          0          0          0
  linear           :       0.68       0.15      6          0          0          0          0          0          0          0         18        252
  orbisack         :       0.00       0.00      1          0          0          0          0          0          0          0          0          0
  symretope        :       0.00       0.00      1          0          0          0          0          0          0          0          0          0
  logicor          :       0.02       0.00      6          0          0          0          0          0          0          0          0          0
  benders          :       0.00       0.00      0          0          0          0          0          0          0          0          0          0
  components       :       0.10       0.00      1          0          0          0          0          0          0          0          0          0
  root node        :          -          -      -          7          -          -          7          -          -          -          -          -
Constraints        :     Number  MaxNumber  #Separate #Propagate    #EnfoLP    #EnfoRelax  #EnfoPS    #Check   #ResProp    Cutoffs    DomReds       Cuts    Applied      Conss   Children
  benderslp        :          0          0          0          0         33          0          0         11          0          0          0          0          0          0          0
  integral         :          0          0          0          0         33          0          0         11          0          0          0          0          0          0         66
  varbound         :      71424      71424         11      10170          0          0          0          5        531          0       2606          0          0          0          0
  knapsack         :         54         54         11      10170          0          0          0          5        128          0         16          0          0          0          0
  setppc           :        428+       436         11      10170          0          0          0          3        478         23        785          4          0          0          0
  linear           :      38922+     38924         11      10147          0          0          0          1       3336          8      24363          0          0          0          0
  orbisack         :         44         44          0         55          0          0          0          1         46         19         49          0          0          0          0
  symretope        :          5          5          0         91          0          0          0          1         18          0         38          0          0          0          0
  logicor          :        234+       404         11       3048          0          0          0          1         24          3         45          3          2          0          0
  benders          :          0          0          0          0          0          0          0          2          0          0          0          0          0          0          0
  countsols        :          0          0          0          0          0          0          0          2          0          0          0          0          0          0          0
  components       :          0          0          0          0          0          0          0          0          0          0          0          0          0          0          0
Constraint Timings :  TotalTime  SetupTime   Separate  Propagate     EnfoLP     EnfoPS     EnfoRelax   Check    ResProp    SB-Prop
  benderslp        :       0.00       0.00       0.00       0.00       0.00       0.00       0.00       0.00       0.00       0.00
  integral         :       3.93       0.00       0.00       0.00       3.93       0.00       0.00       0.00       0.00       0.00
  varbound         :       1.96       0.00       0.32       1.55       0.00       0.00       0.00       0.07       0.00       0.02
  knapsack         :       0.05       0.00       0.01       0.04       0.00       0.00       0.00       0.00       0.00       0.00
  setppc           :       0.13       0.00       0.00       0.13       0.00       0.00       0.00       0.00       0.00       0.00
  linear           :       4.65       0.15       0.15       4.32       0.00       0.00       0.00       0.00       0.01       0.02
  orbisack         :       0.01       0.00       0.00       0.01       0.00       0.00       0.00       0.00       0.00       0.00
  symretope        :       0.00       0.00       0.00       0.00       0.00       0.00       0.00       0.00       0.00       0.00
  logicor          :       0.01       0.00       0.00       0.01       0.00       0.00       0.00       0.00       0.00       0.00
  benders          :       0.00       0.00       0.00       0.00       0.00       0.00       0.00       0.00       0.00       0.00
  countsols        :       0.00       0.00       0.00       0.00       0.00       0.00       0.00       0.00       0.00       0.00
  components       :       0.00       0.00       0.00       0.00       0.00       0.00       0.00       0.00       0.00       0.00
Propagators        : #Propagate   #ResProp    Cutoffs    DomReds
  dualfix          :          1          0          0          0
  genvbounds       :          0          0          0          0
  nlobbt           :          0          0          0          0
  obbt             :          0          0          0          0
  probing          :          0          0          0          0
  pseudoobj        :        196          0          0          0
  redcost          :         77          0          0          0
  rootredcost      :          1          0          0          0
  symmetry         :          0          0          0          0
  vbounds          :       4036          0          0          0
Propagator Timings :  TotalTime  SetupTime   Presolve  Propagate    ResProp    SB-Prop
  dualfix          :       0.01       0.00       0.01       0.00       0.00       0.00
  genvbounds       :       0.00       0.00       0.00       0.00       0.00       0.00
  nlobbt           :       0.00       0.00       0.00       0.00       0.00       0.00
  obbt             :       0.00       0.00       0.00       0.00       0.00       0.00
  probing          :      12.60       0.00      12.60       0.00       0.00       0.00
  pseudoobj        :       0.03       0.00       0.00       0.03       0.00       0.00
  redcost          :       0.12       0.00       0.00       0.12       0.00       0.00
  rootredcost      :       0.00       0.00       0.00       0.00       0.00       0.00
  symmetry         :       1.42       0.00       1.42       0.00       0.00       0.00
  vbounds          :       0.14       0.00       0.01       0.14       0.00       0.00
Orbital fixing     :
  vars fixed to 0  :          0
  vars fixed to 1  :          0
Conflict Analysis  :       Time      Calls    Success    DomReds  Conflicts   Literals    Reconvs ReconvLits   Dualrays   Nonzeros   LP Iters   (pool size: [10000,10000])
  propagation      :       0.01         42         42          -        175       32.0         18        7.4          -          -          -
  infeasible LP    :       0.03          2          2          -         25      115.2          2        3.0          2      169.5          0
  bound exceed. LP :       0.00          0          0          -          0        0.0          0        0.0          0        0.0          0
  strong branching :       0.00          0          0          -          0        0.0          0        0.0          -          -          0
  pseudo solution  :       0.00          0          0          -          0        0.0          0        0.0          -          -          -
  applied globally :       0.02          -          -          0        178       24.8          -          -          2          -          -
  applied locally  :          -          -          -          0          0        0.0          -          -          0          -          -
Separators         :   ExecTime  SetupTime      Calls  RootCalls    Cutoffs    DomReds  FoundCuts ViaPoolAdd  DirectAdd    Applied ViaPoolApp  DirectApp      Conss
  cut pool         :       0.01          -         21         21          -          -       3638       1671          -          -          -          -          -    (maximal pool size:       3638)
  aggregation      :       0.68       0.00         11         11          0          0         73         49          0          3          3          0          0
  > cmir           :          -          -          -          -          -          -          -         24          0          0          0          0          -
  > flowcover      :          -          -          -          -          -          -          -          0          0          0          0          0          -
  > knapsackcover  :          -          -          -          -          -          -          -         25          0          3          3          0          -
  cgmip            :       0.00       0.00          0          0          0          0          0          0          0          0          0          0          0
  clique           :       0.16       0.00         11         11          0          0         80         83          0         17         17          0          0
  closecuts        :       0.00       0.00          0          0          0          0          0          0          0          0          0          0          0
  convexproj       :       0.00       0.00          0          0          0          0          0          0          0          0          0          0          0
  disjunctive      :       0.00       0.00          0          0          0          0          0          0          0          0          0          0          0
  eccuts           :       0.00       0.00          0          0          0          0          0          0          0          0          0          0          0
  gauge            :       0.00       0.00          0          0          0          0          0          0          0          0          0          0          0
  gomory           :       2.24       0.00         10         10          0          0       1985        409          0        133        133          0          0
  > gomorymi       :          -          -          -          -          -          -          -        345          0        123        123          0          -
  > strongcg       :          -          -          -          -          -          -          -         64          0         10         10          0          -
  impliedbounds    :       0.05       0.00         11         11          0          0       1360       1041          0        317        317          0          0
  interminor       :       0.00       0.00          0          0          0          0          0          0          0          0          0          0          0
  intobj           :       0.00       0.00          0          0          0          0          0          0          0          0          0          0          0
  mcf              :       0.24       0.00          1          1          0          0          0          0          0          0          0          0          0
  minor            :       0.00       0.00          0          0          0          0          0          0          0          0          0          0          0
  mixing           :       0.04       0.00         11         11          0          0          0          0          0          0          0          0          0
  oddcycle         :       0.00       0.00          0          0          0          0          0          0          0          0          0          0          0
  rapidlearning    :       0.00       0.00          0          0          0          0          0          0          0          0          0          0          0
  rlt              :       0.00       0.00         10         10          0          0          0          0          0          0          0          0          0
  zerohalf         :       1.18       0.00         11         11          0          0        140         89          0          6          6          0          0
Cutselectors       :   ExecTime  SetupTime      Calls  RootCalls   Selected     Forced   Filtered  RootSelec   RootForc   RootFilt 
  hybrid           :       0.00       0.00         11         11        478          0       1200        478          0       1200
Pricers            :   ExecTime  SetupTime      Calls       Vars
  problem variables:       0.00          -          0          0
Branching Rules    :   ExecTime  SetupTime   BranchLP  BranchExt   BranchPS    Cutoffs    DomReds       Cuts      Conss   Children
  allfullstrong    :       0.00       0.00          0          0          0          0          0          0          0          0
  cloud            :       0.00       0.00          0          0          0          0          0          0          0          0
  distribution     :       0.00       0.00          0          0          0          0          0          0          0          0
  fullstrong       :       0.00       0.00          0          0          0          0          0          0          0          0
  inference        :       0.00       0.00          0          0          0          0          0          0          0          0
  leastinf         :       0.00       0.00          0          0          0          0          0          0          0          0
  lookahead        :       0.00       0.00          0          0          0          0          0          0          0          0
  mostinf          :       0.00       0.00          0          0          0          0          0          0          0          0
  multaggr         :       0.00       0.00          0          0          0          0          0          0          0          0
  nodereopt        :       0.00       0.00          0          0          0          0          0          0          0          0
  pscost           :       0.00       0.00          0          0          0          0          0          0          0          0
  random           :       0.00       0.00          0          0          0          0          0          0          0          0
  relpscost        :       3.93       0.00         33          0          0          0          0          0          0         66
  vanillafullstrong:       0.00       0.00          0          0          0          0          0          0          0          0
Primal Heuristics  :   ExecTime  SetupTime      Calls      Found       Best
  LP solutions     :       0.00          -          -          0          0
  relax solutions  :       0.00          -          -          0          0
  pseudo solutions :       0.00          -          -          0          0
  strong branching :       0.00          -          -          0          0
  actconsdiving    :       0.00       0.00          0          0          0
  adaptivediving   :       1.03       0.00          1          0          0
  alns             :       1.37       0.00          1          0          0
  bound            :       0.00       0.00          0          0          0
  clique           :       0.49       0.00          1          0          0
  coefdiving       :       0.00       0.00          0          0          0
  completesol      :       0.00       0.00          0          0          0
  conflictdiving   :       0.04       0.00          1          0          0
  crossover        :       0.00       0.00          0          0          0
  dins             :       0.00       0.00          0          0          0
  distributiondivin:       0.01       0.00          0          0          0
  dps              :       0.00       0.00          0          0          0
  dualval          :       0.00       0.00          0          0          0
  farkasdiving     :      24.11       0.00          1          0          0
  feaspump         :       3.10       0.00          1          0          0
  fixandinfer      :       0.00       0.00          0          0          0
  fracdiving       :       0.54       0.00          1          0          0
  gins             :       0.00       0.00          0          0          0
  guideddiving     :       0.00       0.00          0          0          0
  indicator        :       0.00       0.00          0          0          0
  intdiving        :       0.00       0.00          0          0          0
  intshifting      :       0.04       0.00          1          0          0
  linesearchdiving :       0.00       0.00          0          0          0
  localbranching   :       0.00       0.00          0          0          0
  locks            :       0.14       0.00          1          0          0
  lpface           :      11.11       0.00          1          0          0
  mpec             :       0.00       0.00          0          0          0
  multistart       :       0.00       0.00          0          0          0
  mutation         :       0.00       0.00          0          0          0
  nlpdiving        :       0.00       0.00          0          0          0
  objpscostdiving  :       0.00       0.00          0          0          0
  octane           :       0.00       0.00          0          0          0
  ofins            :       0.00       0.00          0          0          0
  oneopt           :       0.00       0.00          0          0          0
  padm             :       0.00       0.00          0          0          0
  proximity        :       0.00       0.00          0          0          0
  pscostdiving     :       1.09       0.00          1          0          0
  randrounding     :       1.37       0.00         12          0          0
  rens             :       1.37       0.00          1          0          0
  reoptsols        :       0.00       0.00          0          0          0
  repair           :       0.00       0.00          0          0          0
  rins             :       0.00       0.00          0          0          0
  rootsoldiving    :       0.00       0.00          0          0          0
  rounding         :       0.19       0.00         42          0          0
  shiftandpropagate:       0.35       0.00          1          0          0
  shifting         :       0.23       0.00         12          0          0
  simplerounding   :       0.00       0.00          0          0          0
  subnlp           :       0.00       0.00          0          0          0
  trivial          :       0.20       0.00          2          0          0
  trivialnegation  :       0.00       0.00          0          0          0
  trustregion      :       0.00       0.00          0          0          0
  trysol           :       0.00       0.00          0          0          0
  twoopt           :       0.00       0.00          0          0          0
  undercover       :       0.00       0.00          0          0          0
  vbounds          :       0.02       0.00          0          0          0
  veclendiving     :       1.01       0.00          1          1          1
  zeroobj          :       0.00       0.00          0          0          0
  zirounding       :       0.11       0.00         30          0          0
  other solutions  :          -          -          -          0          -
LP                 :       Time      Calls Iterations  Iter/call   Iter/sec  Time-0-It Calls-0-It    ItLimit
  primal LP        :       0.81          2          0       0.00       0.00       0.81          2
  dual LP          :       5.94         44       5585     132.98     940.51       0.03          2
  lex dual LP      :       0.00          0          0       0.00          -
  barrier LP       :       0.00          0          0       0.00          -       0.00          0
  resolve instable :       0.00          0          0       0.00          -
  diving/probing LP:      19.71        450      15417      34.26     782.29
  strong branching :       2.88         22       2822     128.27     979.86          -          -          0
    (at root node) :          -         22       2822     128.27          -
  conflict analysis:       0.00          0          0       0.00          -
B&B Tree           :
  number of runs   :          1
  nodes            :         37 (33 internal, 4 leaves)
  feasible leaves  :          0
  infeas. leaves   :          4
  objective leaves :          0
  nodes (total)    :         37 (33 internal, 4 leaves)
  nodes left       :          0
  max depth        :          9
  max depth (total):          9
  backtracks       :          6 (16.2%)
  early backtracks :          0 (0.0%)
  nodes exc. ref.  :          0 (0.0%)
  delayed cutoffs  :          1
  repropagations   :          7 (2412 domain reductions, 1 cutoffs)
  avg switch length:       2.43
  switching time   :       0.48
Root Node          :
  First LP value   : +5.00301565326000e+01
  First LP Iters   :        990 (1098.77 Iter/sec)
  First LP Time    :       0.90
  Final Dual Bound : +5.00301565326000e+01
  Final Root Iters :       7443
  Root LP Estimate : +5.00653191927350e+01
Solution           :
  Solutions found  :          1 (1 improvements)
  First Solution   : +5.00301565326000e+01   (in run 1, after 37 nodes, 82.55 seconds, depth 151, found by <veclendiving>)
  Gap First Sol.   :       0.00 %
  Gap Last Sol.    :       0.00 %
  Primal Bound     : +5.00301565326000e+01   (in run 1, after 37 nodes, 82.55 seconds, depth 151, found by <veclendiving>)
  Dual Bound       : +5.00301565326000e+01
  Gap              :       0.00 %
Integrals          :      Total       Avg%
  primal-dual      :    8257.62      99.85
  primal-ref       :          -          - (not evaluated)
  dual-ref         :          -          - (not evaluated)
written solution information to file <results/final_miplib_symretope_if_extended_generating_set_cpx_v802__settings_final_nopeek_norelabel_extend_norestarts__0__neos-3755335-nizao.mps.gz.sol>
@04 1686649393
